\ Model primal
\ LP format - for model browsing. Use MPS format to capture full model detail.
Maximize
  9 x[1]
Subject To
 p[0]: 4 x[0] + 13 x[1] <= 25
 p[1]: x[0] + x[1] <= 24
 p[2]: 4 x[0] + 10 x[1] <= 27
 p[3]: 4 x[0] + 16 x[1] <= 22
 p[4]: - 13 x[0] + 15 x[1] <= 18
 p[5]: 15 x[0] - 3 x[1] <= 24
 p[6]: - 4 x[0] - 9 x[1] <= 18
 p[7]: 4 x[0] + 9 x[1] <= 11
Bounds
 x[0] free
 x[1] free
End
